0 7 7 7 7 7 7 7 7 7 7 7 7 7 
7 0 20 3 1 6 18 9 7 13 2 8 18 10 
7 20 0 5 1 7 4 8 7 7 2 11 3 7 
7 3 5 0 1 10 13 5 7 8 2 16 10 11 
7 1 1 1 0 6 1 1 1 5 2 16 1 1 
7 6 7 10 6 0 9 9 10 9 2 5 6 7 
7 18 4 13 1 9 0 12 7 11 2 10 3 7 
7 9 8 5 1 9 12 0 7 14 2 13 12 13 
7 7 7 7 1 10 7 7 0 15 2 15 7 7 
7 13 7 8 5 9 11 14 15 0 2 7 15 10 
7 2 2 2 2 2 2 2 2 2 0 2 2 2 
7 8 11 16 16 5 10 13 15 7 2 0 9 14 
7 18 3 10 1 6 3 12 7 15 2 9 0 2 
7 10 7 11 1 7 7 13 7 10 2 14 2 0 